p cnf 75 58
c p distribution  0.875 0.125
c p distribution  0.875 0.125
c p distribution  0.875 0.125
c p distribution  0.875 0.125
c p distribution  0.875 0.125
c p distribution  0.875 0.125
c p distribution  0.875 0.125
c p distribution  0.875 0.125
c p distribution  0.875 0.125
c p distribution  0.875 0.125
c p distribution  0.875 0.125
c p distribution  0.875 0.125
c p distribution  0.875 0.125
c p distribution  0.875 0.125
c p distribution  0.875 0.125
c p distribution  0.875 0.125
c p distribution  0.875 0.125
c p distribution  0.875 0.125
c p distribution  0.875 0.125
c p distribution  0.875 0.125
c p distribution  0.875 0.125
c p distribution  0.875 0.125
c p distribution  0.875 0.125
c p distribution  0.875 0.125
c p distribution  0.875 0.125
c p distribution  0.875 0.125
c p distribution  0.875 0.125
c p distribution  0.875 0.125
66 0
-71 0
59 -66 -1 0
66 -59 -1 0
74 -60 -3 0
60 -74 -3 0
70 -72 -5 0
72 -70 -5 0
63 -75 -7 0
75 -63 -7 0
58 -73 -9 0
73 -58 -9 0
58 -73 -11 0
73 -58 -11 0
64 -69 -13 0
69 -64 -13 0
66 -57 -15 0
57 -66 -15 0
67 -65 -17 0
65 -67 -17 0
74 -57 -19 0
57 -74 -19 0
71 -60 -21 0
60 -71 -21 0
62 -73 -23 0
73 -62 -23 0
70 -60 -25 0
60 -70 -25 0
69 -64 -27 0
64 -69 -27 0
59 -60 -29 0
60 -59 -29 0
68 -74 -31 0
74 -68 -31 0
67 -72 -33 0
72 -67 -33 0
67 -72 -35 0
72 -67 -35 0
71 -60 -37 0
60 -71 -37 0
70 -60 -39 0
60 -70 -39 0
68 -60 -41 0
60 -68 -41 0
61 -65 -43 0
65 -61 -43 0
62 -73 -45 0
73 -62 -45 0
59 -57 -47 0
57 -59 -47 0
75 -64 -49 0
64 -75 -49 0
68 -66 -51 0
66 -68 -51 0
69 -60 -53 0
60 -69 -53 0
67 -65 -55 0
65 -67 -55 0
